
Gurobi 13.0.2 (win64) logging started Thu Jul 23 16:15:44 2026

Set parameter LogFile to value "E:\codes\ExactEBRP\results\gf_gurobi_performance_recovery_round29\runs\stage2__high_imbalance_seed4201__c4_candidate__300s\external\native_logs\L2.0.0.1.0.1.0.1_lp.gurobi.log"
Gurobi Optimizer version 13.0.2 build v13.0.2rc1 (win64 - Windows 10.0 (19045.2))

CPU model: 12th Gen Intel(R) Core(TM) i7-12700KF, instruction set [SSE2|AVX|AVX2]
Thread count: 12 physical cores, 20 logical processors, using up to 1 threads

Non-default parameters:
TimeLimit  1.5476962000000185e+00
MIPGap  0
MIPGapAbs  0
LogToConsole  0
Threads  1

Optimize a model with 11902 rows, 3374 columns and 67341 nonzeros (Min)
Model fingerprint: 0xf736a32f
Model has 21 linear objective coefficients
Coefficient statistics:
  Matrix range     [1e-02, 2e+04]
  Objective range  [1e-02, 1e+00]
  Bounds range     [5e-01, 2e+03]
  RHS range        [5e-01, 5e+04]

Presolve removed 1623 rows and 108 columns
Presolve time: 0.03s
Presolved: 10279 rows, 3267 columns, 52315 nonzeros

Iteration    Objective       Primal Inf.    Dual Inf.      Time
       0    2.2546012e+00   6.534764e+02   0.000000e+00      0s

Extra simplex iterations after uncrush: 4
    3369    2.6904618e+00   0.000000e+00   0.000000e+00      0s

Solved in 3369 iterations and 0.25 seconds (0.73 work units)
Optimal objective  2.690461809e+00

User-callback calls 3518, time in user-callback 0.00 sec
